NAME          example_1
ROWS
 N  PROFIT
 L  LABOR
 L  MATERIAL
COLUMNS
    X1        PROFIT              40
    X1        LABOR                2
    X1        MATERIAL             1
    X2        PROFIT              30
    X2        LABOR                1
    X2        MATERIAL             2
RHS
    RHS1      LABOR              100
    RHS1      MATERIAL            80
BOUNDS
 LO BND1      X1                   0
 LO BND1      X2                   0
ENDATA
